Route #1: 20 116 107 54 71 96 61 119 94 84 16 80 29 25 73 31 38 10 88 52 50
Route #2: 67 30 33 118 79 21 91 32 12 2 49 42 39 78 8 114 90 45 70 55 93
Route #3: 43 76 113 64 109 82 98 13 99 9 44 18 19 28 83 15 58 23 14 115 36
Route #4: 103 17 75 41 5 85 69 81 68 60 95 4 22 59 100 77 57 37 24 1 56
Route #5: 53 89 51 63 104 105 101 47 26 117 108 66 46 97 7 106 110 74 65 86 48
Route #6: 112 3 40 6 92 35 11 27 34 111 102 72 87 62
Cost 14993
